sys.path.insert(0, './..')
import zora_core_excitation

molecule {
O
H 1 1.1
H 1 1.1 2 104
symmetry c1
}

set {
  basis cc-pvdz
  scf_type df
  reference rks
}

h_energy, wfn = energy('pbe0', return_wfn=True)
print("pbe0 energy = %f" % h_energy)

zora_core_excitation.form_H(wfn)
