sys.path.insert(0, './..')
import zora_core_excitation

molecule {
0 1
Ne 0 0 0
symmetry c1
}

set {
  basis sto-3g
  scf_type pk
	dft_spherical_points 770
  reference rks
}

h_energy, wfn = energy('pbe0', return_wfn=True)
print("pbe0 energy = %f" % h_energy)

zora_core_excitation.form_H(wfn)
