
# PYTHONPATH must include directory above plugin directory.
#     Define either externally or here, then import plugin.
sys.path.insert(0, './..')
import zora_core_excitation

molecule {
O
H 1 R
H 1 R 2 A

R = .9
A = 104.5
}

set {
  basis sto-3g
}

set zora_core_excitation {
  print 1
}

energy('zora_core_excitation')

zora_core_excitation.exampleFN()
