
# PYTHONPATH must include directory above plugin directory.
#     Define either externally or here, then import plugin.
sys.path.insert(0, './..')
import zora_core_excitation

molecule {
O
H 1 1.1
H 1 1.1 2 104
symmetry c1
}

set {
  basis cc-pvdz
  scf_type pk
  reference uhf
  dft_spherical_points 6
  dft_radial_points 5
}

h_energy, wfn = energy('zora_core_excitation', return_wfn=True)
print ("zora energy = %f" % h_energy)

b3lyp_e = energy('b3lyp')
print ("b3lyp energy = %f" % b3lyp_e)